000 000 000 -99 -99 000 000 000 -99 -99 -99 -99 000 000 000 -99 -99 -99 000 000 -99 000 000 000 000 000 -99 -99 000 000 000
000 000 000 000 000 000 000 -99 -99 -99 -99 -99 -99 000 000 000 -99 -99 -99 000 000 000 000 -99 001 000 000 -99 -99 -99 000
000 000 000 000 000 000 000 -99 -99 -99 -99 -99 -99 -99 000 000 -99 -99 -99 -99 -99 000 000 000 001 000 000 000 -99 -99 -99
000 000 000 000 000 000 -99 000 000 000 -99 -99 -99 -99 000 000 -99 -99 -99 -99 000 000 000 000 000 001 000 000 -99 -99 -99
000 000 000 000 000 000 000 000 000 000 -99 -99 000 -99 -99 -99 -99 -99 -99 -99 000 000 000 000 000 000 000 000 -99 -99 -99
000 000 000 000 000 000 000 000 000 000 000 -99 000 -99 -99 -99 -99 -99 -99 -99 000 000 000 000 -99 000 -99 000 -99 -99 -99
000 000 000 000 000 000 -99 000 000 000 000 000 -99 000 -99 -99 -99 -99 -99 -99 000 000 000 -99 -99 000 -99 -99 -99 -99 -99
000 000 000 000 000 000 000 -99 -99 000 000 000 -99 -99 -99 -99 000 000 -99 -99 000 000 000 -99 -99 -99 -99 -99 -99 000 000
000 000 000 000 000 000 000 -99 -99 000 000 000 000 -99 -99 -99 000 000 000 -99 000 000 000 -99 -99 -99 -99 -99 -99 000 000
000 000 000 000 000 000 -99 -99 000 000 000 000 000 -99 000 000 000 000 000 000 -99 000 -99 -99 000 -99 -99 -99 -99 -99 000
000 000 000 000 000 -99 000 000 000 000 000 000 000 000 000 000 000 000 000 000 -99 -99 -99 -99 -99 -99 -99 -99 -99 000 000
000 000 000 000 000 -99 000 000 000 000 000 000 000 000 000 000 -99 000 000 000 -99 -99 -99 000 000 -99 -99 -99 -99 000 000
000 000 000 000 000 000 000 000 000 000 000 000 000 000 -99 000 000 000 000 -99 -99 -99 -99 000 000 000 000 000 -99 -99 -99
000 000 000 000 000 000 000 000 -99 000 000 000 -99 -99 000 -99 000 000 000 000 -99 000 -99 000 000 000 000 000 000 000 -99
000 000 000 000 000 000 000 000 -99 -99 -99 000 000 000 000 000 000 000 000 000 -99 -99 -99 000 000 000 000 000 000 -99 -99
000 000 -99 000 000 000 000 000 000 -99 -99 -99 000 000 000 000 000 -99 000 000 -99 000 -99 000 000 000 000 000 000 -99 -99
-99 000 000 -99 000 000 000 000 000 -99 -99 -99 000 000 000 000 000 -99 000 000 -99 -99 000 000 000 000 000 000 000 000 -99
000 000 000 -99 -99 -99 000 000 000 000 -99 -99 -99 000 000 000 000 000 -99 -99 -99 -99 000 000 000 000 000 000 000 000 -99
000 000 000 -99 -99 -99 000 000 000 000 -99 -99 005 000 000 000 000 000 000 -99 -99 000 000 000 000 000 000 000 -99 000 000
000 000 000 000 -99 -99 000 000 000 000 -99 -99 048 001 000 000 000 000 000 000 000 000 000 -99 -99 -99 -99 -99 -99 -99 000
000 000 000 000 000 000 -99 -99 000 000 -99 -99 024 004 000 000 000 000 000 000 000 000 000 -99 -99 -99 -99 -99 -99 -99 -99
000 000 000 000 000 000 -99 000 000 000 -99 -99 010 001 000 000 000 000 000 000 000 000 000 -99 -99 -99 -99 -99 -99 -99 -99
000 000 000 000 000 000 -99 000 000 000 -99 -99 -99 000 000 000 000 000 000 000 000 000 000 -99 -99 -99 -99 -99 -99 -99 -99
000 000 000 000 000 000 000 000 000 -99 -99 -99 000 000 000 000 000 000 000 000 000 000 000 -99 -99 -99 -99 -99 -99 -99 -99
000 000 000 000 000 000 000 000 000 000 -99 -99 000 000 000 000 000 000 000 000 000 000 000 -99 -99 -99 -99 -99 -99 -99 -99
000 000 000 000 000 000 000 000 000 000 -99 -99 000 000 000 000 000 000 000 000 000 000 -99 -99 -99 -99 -99 -99 -99 -99 -99
000 000 000 -99 000 000 -99 000 000 000 -99 -99 -99 000 000 -99 000 000 000 000 000 000 -99 -99 -99 -99 -99 -99 -99 -99 -99
000 000 000 000 000 000 -99 000 000 000 -99 -99 -99 000 -99 000 000 000 000 000 000 000 -99 -99 -99 -99 -99 -99 -99 -99 -99
000 000 000 000 000 000 000 000 000 000 -99 -99 -99 000 000 000 000 000 000 000 -99 000 -99 -99 -99 -99 -99 -99 -99 -99 -99
000 000 000 000 000 000 000 000 000 000 000 -99 -99 000 000 000 000 -99 000 000 -99 000 -99 -99 -99 -99 -99 -99 -99 -99 -99
000 000 000 000 000 000 000 000 000 000 000 -99 -99 000 000 -99 000 000 000 000 -99 000 -99 -99 -99 -99 -99 -99 -99 -99 -99
000 000 000 000 000 000 -99 -99 000 000 000 -99 -99 000 -99 -99 000 000 000 -99 -99 -99 -99 -99 000 -99 -99 -99 -99 -99 000
000 000 000 000 000 000 000 000 000 000 -99 -99 -99 000 000 -99 000 000 000 -99 -99 -99 -99 000 000 -99 -99 -99 -99 000 000
000 000 000 000 000 000 000 000 000 000 -99 -99 -99 000 -99 000 000 000 000 000 -99 -99 -99 000 000 000 -99 000 000 000 000
000 000 000 000 000 000 000 000 000 000 -99 000 000 000 000 000 000 -99 -99 000 000 -99 -99 000 000 000 000 000 000 000 000
000 000 000 000 000 000 000 000 000 000 -99 000 000 -99 000 000 -99 -99 000 000 000 000 -99 000 000 000 000 000 000 000 000
000 000 000 000 000 000 000 000 000 000 -99 -99 000 000 000 000 000 -99 000 000 000 000 -99 000 000 000 000 000 000 000 000
000 000 000 000 000 000 000 000 000 -99 -99 000 000 000 000 000 000 000 000 000 000 -99 000 000 000 000 000 000 000 000 000
000 000 000 -99 -99 000 -99 000 000 -99 -99 000 000 000 000 000 000 000 -99 -99 000 -99 -99 000 000 000 000 000 -99 000 -99
000 000 000 -99 -99 -99 -99 000 -99 -99 -99 000 000 000 000 000 000 -99 -99 -99 -99 -99 000 000 000 000 000 000 -99 -99 -99
000 000 000 000 -99 -99 -99 000 -99 -99 000 000 000 000 000 000 000 -99 000 000 -99 000 000 000 000 000 000 -99 -99 -99 -99
000 000 000 000 -99 -99 -99 -99 -99 000 000 000 000 000 000 000 -99 000 000 000 -99 -99 000 000 000 -99 -99 -99 -99 -99 -99
-99 -99 -99 -99 -99 000 -99 -99 -99 000 000 000 000 000 000 000 000 000 000 000 000 000 000 000 000 000 -99 -99 -99 -99 -99
000 -99 -99 -99 -99 000 -99 -99 -99 000 000 000 000 000 000 000 000 000 000 000 000 000 -99 -99 000 000 -99 -99 -99 -99 -99
000 000 -99 -99 000 000 -99 -99 -99 000 000 000 000 000 000 000 000 000 000 000 000 -99 -99 000 000 -99 -99 000 -99 -99 -99
000 -99 -99 000 000 -99 -99 -99 -99 000 000 000 000 000 000 -99 000 -99 000 -99 000 -99 -99 000 -99 -99 -99 000 -99 -99 -99
000 -99 -99 000 000 -99 -99 -99 -99 000 000 000 000 000 -99 -99 -99 -99 000 000 -99 -99 000 000 -99 -99 -99 -99 -99 -99 -99
-99 -99 -99 -99 -99 -99 -99 -99 -99 000 -99 -99 000 000 -99 -99 -99 000 -99 -99 000 000 000 -99 -99 -99 -99 -99 -99 -99 -99
-99 -99 -99 -99 -99 -99 -99 -99 -99 -99 -99 -99 -99 000 -99 -99 -99 000 000 000 -99 -99 000 -99 -99 -99 -99 000 -99 -99 -99
-99 -99 -99 -99 -99 -99 -99 -99 -99 -99 -99 -99 -99 000 -99 -99 000 000 000 000 000 000 -99 -99 -99 -99 000 000 -99 -99 -99
-99 -99 -99 -99 -99 -99 -99 -99 -99 -99 -99 -99 000 000 000 -99 000 000 000 000 -99 000 -99 -99 -99 000 000 -99 -99 000 000
-99 -99 -99 -99 -99 -99 -99 -99 -99 -99 -99 -99 000 000 -99 -99 000 000 000 000 -99 -99 -99 -99 -99 000 000 -99 -99 000 000
-99 -99 -99 -99 -99 -99 -99 -99 -99 -99 -99 -99 000 000 -99 -99 000 000 000 000 000 -99 -99 -99 000 000 000 -99 -99 -99 000
-99 -99 -99 -99 -99 -99 -99 -99 -99 -99 -99 -99 -99 -99 -99 000 000 000 000 000 000 -99 -99 -99 000 000 -99 -99 -99 000 000
-99 -99 -99 -99 -99 -99 -99 -99 -99 -99 -99 -99 -99 -99 -99 000 000 000 000 000 000 -99 -99 000 000 001 -99 -99 -99 000 000
